5
4
20
1 1.3 1.55 1.75 2.1
30 11 18 5 24 31 44 37 48 42 18 10 40 42 33 17 31 37 33 41 28 27 25 39 28 42 26 5 30 21 20 41 23 40 33 47 29 30 42 6 30 41 34 11 46 42 6 45 39 20 34 24 11 10 16 47 8 29 23 46 40 37 44 41 36 11 42 39 20 47 9 40 15 35 9 11 20 43 32 29 